n_res = 5;
rcap = [11, 6, 96, 77, 92];
rtype = [1, 1, 2, 2, 2];
n_tasks = 16;
modes = [ {1, 2, 3}, {4, 5, 6}, {7, 8, 9}, {10, 11, 12}, {13, 14, 15}, {16, 17, 18}, {19, 20, 21}, {22, 23, 24}, {25, 26, 27}, {28, 29, 30}, {31, 32, 33}, {34, 35, 36}, {37, 38, 39}, {40, 41, 42}, {43, 44, 45}, {46, 47, 48} ];
succ = [ {4}, {7, 15}, {5, 6, 10}, {6, 10}, {7, 9, 12}, {9, 11, 13}, {8, 11}, {16}, {14, 15}, {11, 13, 14}, {16}, {13, 14, 16}, {15}, {}, {}, {} ];
n_opt = 48;
dur = [2, 10, 10, 4, 9, 10, 1, 8, 9, 1, 2, 3, 1, 2, 7, 5, 6, 7, 6, 8, 9, 2, 3, 7, 2, 8, 9, 5, 9, 10, 6, 9, 9, 6, 6, 10, 2, 6, 9, 6, 6, 6, 6, 8, 9, 1, 4, 5];
rreq = [|  5,  3,  5,  0,  0,  8,  0,  0,  3,  4,  2,  0,  9,  4,  0,  0,  6,  5, 10,  0,  8,  3,  0,  0,  0,  0,  7,  9,  5,  3,  0,  0,  5,  0,  9,  0,  0,  6,  3,  0,  3,  9,  0,  0,  7,  5,  1,  0
        |  0,  0,  0,  2,  2,  0,  3,  2,  0,  0,  0,  5,  0,  0,  8,  4,  0,  0,  0,  2,  0,  0,  5,  4,  8,  4,  0,  0,  0,  0,  7,  3,  0,  7,  0,  7,  4,  0,  0,  5,  0,  0,  6,  2,  0,  0,  0,  6
        |  3,  2,  2,  8,  8,  6,  9,  8,  5,  9,  9,  8,  9,  9,  9,  7,  6,  6,  7,  5,  4,  7,  7,  6,  9,  7,  6,  7,  3,  1,  7,  3,  2, 10,  9,  9,  6,  3,  2,  5,  6,  6,  7,  5,  2,  4,  4,  4
        |  9,  6,  7,  8,  7,  6,  5,  4,  2,  2,  2,  2,  4,  3,  1,  7,  7,  6,  2,  2,  1,  7,  5,  1,  9,  6,  4,  6,  4,  3,  7,  2,  4,  5,  5,  2, 10,  9,  9,  5,  4,  3,  8,  6,  5,  3,  3,  3
        |  3,  3,  1,  8,  7,  5,  2,  2,  2,  8,  7,  6,  6,  3,  1,  4,  2,  1,  7,  7,  7,  8,  8,  7,  9,  7,  7,  9,  7,  7,  9,  8,  5,  1,  1,  1, 10,  8,  6,  9,  5, 10,  5,  5,  4, 10, 10,  9 |];
